language Essence 1.3

letting can_fly be
        relation((1, 2), (1, 8), (1, 9), (1, 10), (1, 11), (1, 13), (1, 15), (1, 17), (1, 19), (1, 21), (1, 23),
                 (1, 27), (1, 28), (1, 30), (1, 31), (1, 32), (1, 33), (1, 34), (1, 36), (1, 38), (1, 39), (2, 6),
                 (2, 9), (2, 12), (2, 17), (2, 18), (2, 20), (2, 21), (2, 25), (2, 26), (2, 28), (2, 29), (2, 30),
                 (2, 31), (2, 33), (2, 34), (2, 35), (2, 36), (2, 37), (2, 38), (3, 1), (3, 2), (3, 4), (3, 5), (3, 8),
                 (3, 9), (3, 10), (3, 13), (3, 15), (3, 16), (3, 17), (3, 18), (3, 20), (3, 21), (3, 25), (3, 28),
                 (3, 29), (3, 30), (3, 32), (3, 36), (3, 37), (3, 38), (4, 1), (4, 2), (4, 3), (4, 6), (4, 8), (4, 9),
                 (4, 10), (4, 11), (4, 12), (4, 13), (4, 16), (4, 17), (4, 19), (4, 25), (4, 26), (4, 28), (4, 34),
                 (4, 35), (4, 36), (4, 38), (5, 2), (5, 3), (5, 6), (5, 8), (5, 9), (5, 20), (5, 23), (5, 24), (5, 25),
                 (5, 27), (5, 28), (5, 31), (5, 35), (5, 36), (5, 37), (5, 39), (6, 3), (6, 4), (6, 5), (6, 7), (6, 9),
                 (6, 10), (6, 11), (6, 12), (6, 13), (6, 15), (6, 16), (6, 18), (6, 19), (6, 20), (6, 21), (6, 22),
                 (6, 23), (6, 24), (6, 25), (6, 26), (6, 28), (6, 30), (6, 35), (6, 36), (7, 5), (7, 6), (7, 8), (7, 9),
                 (7, 11), (7, 13), (7, 16), (7, 17), (7, 18), (7, 19), (7, 20), (7, 21), (7, 22), (7, 24), (7, 25),
                 (7, 29), (7, 32), (7, 33), (7, 35), (7, 36), (7, 37), (7, 38), (8, 3), (8, 4), (8, 5), (8, 7), (8, 9),
                 (8, 10), (8, 13), (8, 14), (8, 15), (8, 16), (8, 17), (8, 18), (8, 20), (8, 21), (8, 22), (8, 24),
                 (8, 25), (8, 27), (8, 29), (8, 30), (8, 31), (8, 32), (8, 35), (8, 37), (9, 4), (9, 7), (9, 15),
                 (9, 17), (9, 19), (9, 20), (9, 26), (9, 29), (9, 35), (9, 36), (9, 39), (10, 1), (10, 2), (10, 6),
                 (10, 8), (10, 12), (10, 16), (10, 17), (10, 20), (10, 22), (10, 23), (10, 24), (10, 25), (10, 30),
                 (10, 31), (10, 32), (10, 34), (10, 36), (10, 39))
$ Visualisation for can_fly
$  1  2
$  1  8
$  1  9
$  1 10
$  1 11
$  1 13
$  1 15
$  1 17
$  1 19
$  1 21
$  1 23
$  1 27
$  1 28
$  1 30
$  1 31
$  1 32
$  1 33
$  1 34
$  1 36
$  1 38
$  1 39
$  2  6
$  2  9
$  2 12
$  2 17
$  2 18
$  2 20
$  2 21
$  2 25
$  2 26
$  2 28
$  2 29
$  2 30
$  2 31
$  2 33
$  2 34
$  2 35
$  2 36
$  2 37
$  2 38
$  3  1
$  3  2
$  3  4
$  3  5
$  3  8
$  3  9
$  3 10
$  3 13
$  3 15
$  3 16
$  3 17
$  3 18
$  3 20
$  3 21
$  3 25
$  3 28
$  3 29
$  3 30
$  3 32
$  3 36
$  3 37
$  3 38
$  4  1
$  4  2
$  4  3
$  4  6
$  4  8
$  4  9
$  4 10
$  4 11
$  4 12
$  4 13
$  4 16
$  4 17
$  4 19
$  4 25
$  4 26
$  4 28
$  4 34
$  4 35
$  4 36
$  4 38
$  5  2
$  5  3
$  5  6
$  5  8
$  5  9
$  5 20
$  5 23
$  5 24
$  5 25
$  5 27
$  5 28
$  5 31
$  5 35
$  5 36
$  5 37
$  5 39
$  6  3
$  6  4
$  6  5
$  6  7
$  6  9
$  6 10
$  6 11
$  6 12
$  6 13
$  6 15
$  6 16
$  6 18
$  6 19
$  6 20
$  6 21
$  6 22
$  6 23
$  6 24
$  6 25
$  6 26
$  6 28
$  6 30
$  6 35
$  6 36
$  7  5
$  7  6
$  7  8
$  7  9
$  7 11
$  7 13
$  7 16
$  7 17
$  7 18
$  7 19
$  7 20
$  7 21
$  7 22
$  7 24
$  7 25
$  7 29
$  7 32
$  7 33
$  7 35
$  7 36
$  7 37
$  7 38
$  8  3
$  8  4
$  8  5
$  8  7
$  8  9
$  8 10
$  8 13
$  8 14
$  8 15
$  8 16
$  8 17
$  8 18
$  8 20
$  8 21
$  8 22
$  8 24
$  8 25
$  8 27
$  8 29
$  8 30
$  8 31
$  8 32
$  8 35
$  8 37
$  9  4
$  9  7
$  9 15
$  9 17
$  9 19
$  9 20
$  9 26
$  9 29
$  9 35
$  9 36
$  9 39
$ 10  1
$ 10  2
$ 10  6
$ 10  8
$ 10 12
$ 10 16
$ 10 17
$ 10 20
$ 10 22
$ 10 23
$ 10 24
$ 10 25
$ 10 30
$ 10 31
$ 10 32
$ 10 34
$ 10 36
$ 10 39

letting carry_in be
        function(1 --> 24, 2 --> 6, 3 --> 8, 4 --> 1, 5 --> 29, 6 --> 27, 7 --> 25, 8 --> 13, 9 --> 12, 10 --> 21)
letting maint be {6, 7, 8, 9, 11, 14, 15, 16, 17, 18, 22, 24, 26, 27, 28, 29, 30, 31, 33, 36, 37, 38, 39}
letting maint_freq be 11
letting n_flights be 39
letting n_planes be 10
letting network be
        relation((1, 2), (1, 5), (1, 7), (1, 9), (1, 12), (1, 13), (1, 14), (1, 15), (1, 17), (1, 21), (1, 22), (1, 23),
                 (1, 26), (1, 32), (1, 36), (2, 1), (2, 4), (2, 6), (2, 9), (2, 10), (2, 14), (2, 16), (2, 19), (2, 23),
                 (2, 24), (2, 25), (2, 28), (2, 30), (2, 32), (2, 33), (2, 35), (2, 38), (2, 39), (3, 3), (3, 4),
                 (3, 5), (3, 10), (3, 13), (3, 14), (3, 15), (3, 16), (3, 18), (3, 26), (3, 27), (3, 28), (3, 29),
                 (3, 31), (3, 33), (3, 34), (3, 36), (3, 37), (3, 39), (4, 3), (4, 7), (4, 9), (4, 10), (4, 13),
                 (4, 16), (4, 19), (4, 22), (4, 25), (4, 26), (4, 28), (4, 30), (4, 31), (4, 32), (4, 33), (4, 34),
                 (4, 37), (4, 39), (5, 2), (5, 4), (5, 5), (5, 9), (5, 10), (5, 11), (5, 12), (5, 13), (5, 14), (5, 15),
                 (5, 17), (5, 22), (5, 23), (5, 25), (5, 27), (5, 29), (5, 30), (5, 31), (5, 32), (5, 36), (6, 1),
                 (6, 3), (6, 6), (6, 8), (6, 9), (6, 14), (6, 18), (6, 19), (6, 21), (6, 23), (6, 24), (6, 27), (6, 33),
                 (6, 34), (6, 35), (6, 38), (6, 39), (7, 1), (7, 4), (7, 5), (7, 8), (7, 9), (7, 11), (7, 12), (7, 15),
                 (7, 16), (7, 17), (7, 19), (7, 20), (7, 21), (7, 22), (7, 23), (7, 28), (7, 29), (7, 30), (7, 31),
                 (7, 32), (7, 33), (7, 34), (7, 36), (7, 39), (8, 3), (8, 4), (8, 5), (8, 6), (8, 10), (8, 15), (8, 16),
                 (8, 18), (8, 23), (8, 24), (8, 25), (8, 26), (8, 30), (8, 31), (8, 32), (8, 33), (8, 36), (8, 39),
                 (9, 1), (9, 2), (9, 3), (9, 4), (9, 11), (9, 17), (9, 18), (9, 19), (9, 21), (9, 22), (9, 23), (9, 24),
                 (9, 25), (9, 26), (9, 29), (9, 30), (9, 31), (9, 32), (9, 33), (9, 36), (9, 37), (9, 38), (10, 4),
                 (10, 7), (10, 8), (10, 9), (10, 14), (10, 19), (10, 20), (10, 22), (10, 23), (10, 24), (10, 28),
                 (10, 31), (10, 32), (10, 35), (10, 37), (11, 1), (11, 4), (11, 5), (11, 6), (11, 7), (11, 9), (11, 11),
                 (11, 12), (11, 14), (11, 15), (11, 17), (11, 18), (11, 20), (11, 26), (11, 27), (11, 29), (11, 30),
                 (11, 31), (11, 35), (11, 36), (11, 37), (11, 39), (12, 3), (12, 4), (12, 5), (12, 7), (12, 8), (12, 9),
                 (12, 10), (12, 11), (12, 13), (12, 15), (12, 16), (12, 18), (12, 21), (12, 24), (12, 25), (12, 29),
                 (12, 31), (12, 32), (12, 35), (12, 36), (12, 37), (12, 38), (12, 39), (13, 1), (13, 2), (13, 5),
                 (13, 6), (13, 8), (13, 9), (13, 10), (13, 11), (13, 12), (13, 13), (13, 14), (13, 18), (13, 19),
                 (13, 21), (13, 22), (13, 23), (13, 25), (13, 27), (13, 28), (13, 30), (13, 31), (13, 33), (13, 34),
                 (13, 35), (14, 1), (14, 2), (14, 3), (14, 6), (14, 7), (14, 10), (14, 11), (14, 12), (14, 13),
                 (14, 15), (14, 17), (14, 18), (14, 20), (14, 22), (14, 23), (14, 24), (14, 25), (14, 26), (14, 28),
                 (14, 29), (14, 31), (14, 36), (14, 38), (15, 1), (15, 3), (15, 6), (15, 11), (15, 15), (15, 18),
                 (15, 20), (15, 23), (15, 25), (15, 27), (15, 30), (15, 32), (15, 33), (15, 34), (15, 36), (15, 37),
                 (15, 38), (16, 2), (16, 3), (16, 6), (16, 8), (16, 9), (16, 10), (16, 12), (16, 13), (16, 15),
                 (16, 17), (16, 18), (16, 20), (16, 24), (16, 27), (16, 28), (16, 29), (16, 31), (16, 32), (16, 34),
                 (16, 35), (16, 36), (16, 38), (16, 39), (17, 2), (17, 3), (17, 4), (17, 7), (17, 8), (17, 9), (17, 10),
                 (17, 11), (17, 13), (17, 15), (17, 16), (17, 17), (17, 18), (17, 20), (17, 22), (17, 24), (17, 26),
                 (17, 27), (17, 28), (17, 32), (17, 33), (17, 34), (17, 35), (17, 38), (17, 39), (18, 2), (18, 3),
                 (18, 4), (18, 7), (18, 11), (18, 12), (18, 14), (18, 15), (18, 16), (18, 17), (18, 18), (18, 20),
                 (18, 21), (18, 25), (18, 26), (18, 27), (18, 29), (18, 30), (18, 31), (18, 35), (18, 37), (18, 38),
                 (18, 39), (19, 1), (19, 4), (19, 5), (19, 8), (19, 9), (19, 10), (19, 11), (19, 14), (19, 15),
                 (19, 16), (19, 17), (19, 22), (19, 23), (19, 26), (19, 27), (19, 28), (19, 29), (19, 31), (19, 32),
                 (19, 33), (19, 35), (19, 37), (19, 38), (19, 39), (20, 1), (20, 2), (20, 3), (20, 4), (20, 8),
                 (20, 10), (20, 11), (20, 13), (20, 14), (20, 16), (20, 17), (20, 21), (20, 23), (20, 24), (20, 25),
                 (20, 27), (20, 29), (20, 37), (20, 39), (21, 2), (21, 3), (21, 4), (21, 5), (21, 6), (21, 10),
                 (21, 12), (21, 13), (21, 14), (21, 15), (21, 19), (21, 22), (21, 24), (21, 27), (21, 28), (21, 31),
                 (21, 32), (21, 39), (22, 3), (22, 5), (22, 6), (22, 9), (22, 10), (22, 16), (22, 17), (22, 21),
                 (22, 26), (22, 27), (22, 30), (22, 34), (22, 37), (22, 38), (23, 1), (23, 2), (23, 4), (23, 5),
                 (23, 6), (23, 8), (23, 9), (23, 10), (23, 12), (23, 14), (23, 16), (23, 20), (23, 22), (23, 23),
                 (23, 25), (23, 29), (23, 30), (23, 31), (23, 33), (23, 34), (23, 35), (23, 36), (23, 37), (24, 1),
                 (24, 2), (24, 5), (24, 6), (24, 8), (24, 10), (24, 11), (24, 12), (24, 16), (24, 19), (24, 21),
                 (24, 23), (24, 25), (24, 32), (24, 35), (24, 37), (25, 1), (25, 5), (25, 7), (25, 8), (25, 13),
                 (25, 14), (25, 17), (25, 19), (25, 20), (25, 21), (25, 23), (25, 24), (25, 27), (25, 28), (25, 29),
                 (25, 30), (25, 33), (25, 34), (25, 35), (25, 36), (25, 38), (26, 1), (26, 5), (26, 8), (26, 11),
                 (26, 14), (26, 15), (26, 16), (26, 20), (26, 21), (26, 23), (26, 24), (26, 27), (26, 29), (26, 30),
                 (26, 31), (26, 34), (26, 36), (26, 38), (27, 5), (27, 6), (27, 7), (27, 11), (27, 12), (27, 15),
                 (27, 16), (27, 18), (27, 20), (27, 22), (27, 23), (27, 27), (27, 29), (27, 30), (27, 32), (27, 35),
                 (27, 38), (28, 1), (28, 9), (28, 12), (28, 14), (28, 15), (28, 18), (28, 21), (28, 22), (28, 24),
                 (28, 25), (28, 27), (28, 29), (28, 30), (28, 31), (28, 35), (28, 37), (28, 39), (29, 1), (29, 2),
                 (29, 4), (29, 6), (29, 8), (29, 9), (29, 10), (29, 11), (29, 12), (29, 14), (29, 20), (29, 25),
                 (29, 28), (29, 31), (29, 32), (29, 34), (29, 36), (29, 37), (30, 4), (30, 8), (30, 9), (30, 10),
                 (30, 14), (30, 15), (30, 18), (30, 20), (30, 22), (30, 26), (30, 29), (30, 30), (30, 34), (30, 35),
                 (30, 38), (31, 1), (31, 2), (31, 3), (31, 5), (31, 7), (31, 8), (31, 11), (31, 18), (31, 19), (31, 20),
                 (31, 24), (31, 29), (31, 33), (31, 34), (31, 36), (31, 39), (32, 1), (32, 2), (32, 4), (32, 5),
                 (32, 6), (32, 7), (32, 12), (32, 13), (32, 17), (32, 18), (32, 19), (32, 20), (32, 21), (32, 23),
                 (32, 24), (32, 25), (32, 26), (32, 30), (32, 31), (32, 37), (33, 1), (33, 4), (33, 5), (33, 9),
                 (33, 10), (33, 11), (33, 15), (33, 16), (33, 17), (33, 20), (33, 24), (33, 27), (33, 28), (33, 29),
                 (33, 33), (33, 34), (33, 35), (33, 36), (33, 38), (33, 39), (34, 1), (34, 2), (34, 3), (34, 6),
                 (34, 10), (34, 11), (34, 14), (34, 16), (34, 23), (34, 24), (34, 25), (34, 26), (34, 27), (34, 28),
                 (34, 34), (34, 35), (34, 36), (34, 37), (34, 38), (35, 1), (35, 6), (35, 8), (35, 9), (35, 10),
                 (35, 11), (35, 13), (35, 14), (35, 15), (35, 17), (35, 18), (35, 23), (35, 24), (35, 25), (35, 27),
                 (35, 28), (35, 29), (35, 30), (35, 32), (35, 35), (36, 1), (36, 4), (36, 5), (36, 8), (36, 9),
                 (36, 11), (36, 18), (36, 19), (36, 20), (36, 21), (36, 23), (36, 24), (36, 25), (36, 28), (36, 29),
                 (36, 30), (36, 32), (36, 33), (36, 34), (36, 35), (36, 37), (36, 39), (37, 1), (37, 3), (37, 4),
                 (37, 8), (37, 9), (37, 10), (37, 13), (37, 15), (37, 17), (37, 20), (37, 21), (37, 22), (37, 33),
                 (37, 35), (37, 36), (37, 37), (37, 38), (38, 2), (38, 3), (38, 6), (38, 8), (38, 14), (38, 17),
                 (38, 18), (38, 19), (38, 20), (38, 24), (38, 25), (38, 30), (38, 31), (38, 35), (38, 36), (38, 38),
                 (38, 39), (39, 5), (39, 7), (39, 10), (39, 13), (39, 15), (39, 16), (39, 17), (39, 19), (39, 21),
                 (39, 22), (39, 24), (39, 26), (39, 27), (39, 28), (39, 31), (39, 32), (39, 33), (39, 35), (39, 38))
$ Visualisation for network
$  1  2
$  1  5
$  1  7
$  1  9
$  1 12
$  1 13
$  1 14
$  1 15
$  1 17
$  1 21
$  1 22
$  1 23
$  1 26
$  1 32
$  1 36
$  2  1
$  2  4
$  2  6
$  2  9
$  2 10
$  2 14
$  2 16
$  2 19
$  2 23
$  2 24
$  2 25
$  2 28
$  2 30
$  2 32
$  2 33
$  2 35
$  2 38
$  2 39
$  3  3
$  3  4
$  3  5
$  3 10
$  3 13
$  3 14
$  3 15
$  3 16
$  3 18
$  3 26
$  3 27
$  3 28
$  3 29
$  3 31
$  3 33
$  3 34
$  3 36
$  3 37
$  3 39
$  4  3
$  4  7
$  4  9
$  4 10
$  4 13
$  4 16
$  4 19
$  4 22
$  4 25
$  4 26
$  4 28
$  4 30
$  4 31
$  4 32
$  4 33
$  4 34
$  4 37
$  4 39
$  5  2
$  5  4
$  5  5
$  5  9
$  5 10
$  5 11
$  5 12
$  5 13
$  5 14
$  5 15
$  5 17
$  5 22
$  5 23
$  5 25
$  5 27
$  5 29
$  5 30
$  5 31
$  5 32
$  5 36
$  6  1
$  6  3
$  6  6
$  6  8
$  6  9
$  6 14
$  6 18
$  6 19
$  6 21
$  6 23
$  6 24
$  6 27
$  6 33
$  6 34
$  6 35
$  6 38
$  6 39
$  7  1
$  7  4
$  7  5
$  7  8
$  7  9
$  7 11
$  7 12
$  7 15
$  7 16
$  7 17
$  7 19
$  7 20
$  7 21
$  7 22
$  7 23
$  7 28
$  7 29
$  7 30
$  7 31
$  7 32
$  7 33
$  7 34
$  7 36
$  7 39
$  8  3
$  8  4
$  8  5
$  8  6
$  8 10
$  8 15
$  8 16
$  8 18
$  8 23
$  8 24
$  8 25
$  8 26
$  8 30
$  8 31
$  8 32
$  8 33
$  8 36
$  8 39
$  9  1
$  9  2
$  9  3
$  9  4
$  9 11
$  9 17
$  9 18
$  9 19
$  9 21
$  9 22
$  9 23
$  9 24
$  9 25
$  9 26
$  9 29
$  9 30
$  9 31
$  9 32
$  9 33
$  9 36
$  9 37
$  9 38
$ 10  4
$ 10  7
$ 10  8
$ 10  9
$ 10 14
$ 10 19
$ 10 20
$ 10 22
$ 10 23
$ 10 24
$ 10 28
$ 10 31
$ 10 32
$ 10 35
$ 10 37
$ 11  1
$ 11  4
$ 11  5
$ 11  6
$ 11  7
$ 11  9
$ 11 11
$ 11 12
$ 11 14
$ 11 15
$ 11 17
$ 11 18
$ 11 20
$ 11 26
$ 11 27
$ 11 29
$ 11 30
$ 11 31
$ 11 35
$ 11 36
$ 11 37
$ 11 39
$ 12  3
$ 12  4
$ 12  5
$ 12  7
$ 12  8
$ 12  9
$ 12 10
$ 12 11
$ 12 13
$ 12 15
$ 12 16
$ 12 18
$ 12 21
$ 12 24
$ 12 25
$ 12 29
$ 12 31
$ 12 32
$ 12 35
$ 12 36
$ 12 37
$ 12 38
$ 12 39
$ 13  1
$ 13  2
$ 13  5
$ 13  6
$ 13  8
$ 13  9
$ 13 10
$ 13 11
$ 13 12
$ 13 13
$ 13 14
$ 13 18
$ 13 19
$ 13 21
$ 13 22
$ 13 23
$ 13 25
$ 13 27
$ 13 28
$ 13 30
$ 13 31
$ 13 33
$ 13 34
$ 13 35
$ 14  1
$ 14  2
$ 14  3
$ 14  6
$ 14  7
$ 14 10
$ 14 11
$ 14 12
$ 14 13
$ 14 15
$ 14 17
$ 14 18
$ 14 20
$ 14 22
$ 14 23
$ 14 24
$ 14 25
$ 14 26
$ 14 28
$ 14 29
$ 14 31
$ 14 36
$ 14 38
$ 15  1
$ 15  3
$ 15  6
$ 15 11
$ 15 15
$ 15 18
$ 15 20
$ 15 23
$ 15 25
$ 15 27
$ 15 30
$ 15 32
$ 15 33
$ 15 34
$ 15 36
$ 15 37
$ 15 38
$ 16  2
$ 16  3
$ 16  6
$ 16  8
$ 16  9
$ 16 10
$ 16 12
$ 16 13
$ 16 15
$ 16 17
$ 16 18
$ 16 20
$ 16 24
$ 16 27
$ 16 28
$ 16 29
$ 16 31
$ 16 32
$ 16 34
$ 16 35
$ 16 36
$ 16 38
$ 16 39
$ 17  2
$ 17  3
$ 17  4
$ 17  7
$ 17  8
$ 17  9
$ 17 10
$ 17 11
$ 17 13
$ 17 15
$ 17 16
$ 17 17
$ 17 18
$ 17 20
$ 17 22
$ 17 24
$ 17 26
$ 17 27
$ 17 28
$ 17 32
$ 17 33
$ 17 34
$ 17 35
$ 17 38
$ 17 39
$ 18  2
$ 18  3
$ 18  4
$ 18  7
$ 18 11
$ 18 12
$ 18 14
$ 18 15
$ 18 16
$ 18 17
$ 18 18
$ 18 20
$ 18 21
$ 18 25
$ 18 26
$ 18 27
$ 18 29
$ 18 30
$ 18 31
$ 18 35
$ 18 37
$ 18 38
$ 18 39
$ 19  1
$ 19  4
$ 19  5
$ 19  8
$ 19  9
$ 19 10
$ 19 11
$ 19 14
$ 19 15
$ 19 16
$ 19 17
$ 19 22
$ 19 23
$ 19 26
$ 19 27
$ 19 28
$ 19 29
$ 19 31
$ 19 32
$ 19 33
$ 19 35
$ 19 37
$ 19 38
$ 19 39
$ 20  1
$ 20  2
$ 20  3
$ 20  4
$ 20  8
$ 20 10
$ 20 11
$ 20 13
$ 20 14
$ 20 16
$ 20 17
$ 20 21
$ 20 23
$ 20 24
$ 20 25
$ 20 27
$ 20 29
$ 20 37
$ 20 39
$ 21  2
$ 21  3
$ 21  4
$ 21  5
$ 21  6
$ 21 10
$ 21 12
$ 21 13
$ 21 14
$ 21 15
$ 21 19
$ 21 22
$ 21 24
$ 21 27
$ 21 28
$ 21 31
$ 21 32
$ 21 39
$ 22  3
$ 22  5
$ 22  6
$ 22  9
$ 22 10
$ 22 16
$ 22 17
$ 22 21
$ 22 26
$ 22 27
$ 22 30
$ 22 34
$ 22 37
$ 22 38
$ 23  1
$ 23  2
$ 23  4
$ 23  5
$ 23  6
$ 23  8
$ 23  9
$ 23 10
$ 23 12
$ 23 14
$ 23 16
$ 23 20
$ 23 22
$ 23 23
$ 23 25
$ 23 29
$ 23 30
$ 23 31
$ 23 33
$ 23 34
$ 23 35
$ 23 36
$ 23 37
$ 24  1
$ 24  2
$ 24  5
$ 24  6
$ 24  8
$ 24 10
$ 24 11
$ 24 12
$ 24 16
$ 24 19
$ 24 21
$ 24 23
$ 24 25
$ 24 32
$ 24 35
$ 24 37
$ 25  1
$ 25  5
$ 25  7
$ 25  8
$ 25 13
$ 25 14
$ 25 17
$ 25 19
$ 25 20
$ 25 21
$ 25 23
$ 25 24
$ 25 27
$ 25 28
$ 25 29
$ 25 30
$ 25 33
$ 25 34
$ 25 35
$ 25 36
$ 25 38
$ 26  1
$ 26  5
$ 26  8
$ 26 11
$ 26 14
$ 26 15
$ 26 16
$ 26 20
$ 26 21
$ 26 23
$ 26 24
$ 26 27
$ 26 29
$ 26 30
$ 26 31
$ 26 34
$ 26 36
$ 26 38
$ 27  5
$ 27  6
$ 27  7
$ 27 11
$ 27 12
$ 27 15
$ 27 16
$ 27 18
$ 27 20
$ 27 22
$ 27 23
$ 27 27
$ 27 29
$ 27 30
$ 27 32
$ 27 35
$ 27 38
$ 28  1
$ 28  9
$ 28 12
$ 28 14
$ 28 15
$ 28 18
$ 28 21
$ 28 22
$ 28 24
$ 28 25
$ 28 27
$ 28 29
$ 28 30
$ 28 31
$ 28 35
$ 28 37
$ 28 39
$ 29  1
$ 29  2
$ 29  4
$ 29  6
$ 29  8
$ 29  9
$ 29 10
$ 29 11
$ 29 12
$ 29 14
$ 29 20
$ 29 25
$ 29 28
$ 29 31
$ 29 32
$ 29 34
$ 29 36
$ 29 37
$ 30  4
$ 30  8
$ 30  9
$ 30 10
$ 30 14
$ 30 15
$ 30 18
$ 30 20
$ 30 22
$ 30 26
$ 30 29
$ 30 30
$ 30 34
$ 30 35
$ 30 38
$ 31  1
$ 31  2
$ 31  3
$ 31  5
$ 31  7
$ 31  8
$ 31 11
$ 31 18
$ 31 19
$ 31 20
$ 31 24
$ 31 29
$ 31 33
$ 31 34
$ 31 36
$ 31 39
$ 32  1
$ 32  2
$ 32  4
$ 32  5
$ 32  6
$ 32  7
$ 32 12
$ 32 13
$ 32 17
$ 32 18
$ 32 19
$ 32 20
$ 32 21
$ 32 23
$ 32 24
$ 32 25
$ 32 26
$ 32 30
$ 32 31
$ 32 37
$ 33  1
$ 33  4
$ 33  5
$ 33  9
$ 33 10
$ 33 11
$ 33 15
$ 33 16
$ 33 17
$ 33 20
$ 33 24
$ 33 27
$ 33 28
$ 33 29
$ 33 33
$ 33 34
$ 33 35
$ 33 36
$ 33 38
$ 33 39
$ 34  1
$ 34  2
$ 34  3
$ 34  6
$ 34 10
$ 34 11
$ 34 14
$ 34 16
$ 34 23
$ 34 24
$ 34 25
$ 34 26
$ 34 27
$ 34 28
$ 34 34
$ 34 35
$ 34 36
$ 34 37
$ 34 38
$ 35  1
$ 35  6
$ 35  8
$ 35  9
$ 35 10
$ 35 11
$ 35 13
$ 35 14
$ 35 15
$ 35 17
$ 35 18
$ 35 23
$ 35 24
$ 35 25
$ 35 27
$ 35 28
$ 35 29
$ 35 30
$ 35 32
$ 35 35
$ 36  1
$ 36  4
$ 36  5
$ 36  8
$ 36  9
$ 36 11
$ 36 18
$ 36 19
$ 36 20
$ 36 21
$ 36 23
$ 36 24
$ 36 25
$ 36 28
$ 36 29
$ 36 30
$ 36 32
$ 36 33
$ 36 34
$ 36 35
$ 36 37
$ 36 39
$ 37  1
$ 37  3
$ 37  4
$ 37  8
$ 37  9
$ 37 10
$ 37 13
$ 37 15
$ 37 17
$ 37 20
$ 37 21
$ 37 22
$ 37 33
$ 37 35
$ 37 36
$ 37 37
$ 37 38
$ 38  2
$ 38  3
$ 38  6
$ 38  8
$ 38 14
$ 38 17
$ 38 18
$ 38 19
$ 38 20
$ 38 24
$ 38 25
$ 38 30
$ 38 31
$ 38 35
$ 38 36
$ 38 38
$ 38 39
$ 39  5
$ 39  7
$ 39 10
$ 39 13
$ 39 15
$ 39 16
$ 39 17
$ 39 19
$ 39 21
$ 39 22
$ 39 24
$ 39 26
$ 39 27
$ 39 28
$ 39 31
$ 39 32
$ 39 33
$ 39 35
$ 39 38

